c
p cnf 25 68
-5 -8 0
7 16 0
8 1 0
-19 -14 0
-8 23 0
11 6 0
-16 -21 0
-24 -20 0
-25 21 0
13 21 0
-9 4 0
-6 20 0
8 24 0
24 -8 0
-16 -17 0
-5 -12 0
13 -23 0
-7 6 0
12 1 0
-20 -8 0
23 24 0
18 7 0
4 -5 0
2 23 0
25 12 0
3 -9 0
21 24 0
-16 -7 0
-11 -12 0
25 -15 0
2 4 0
-25 3 0
14 6 0
17 -23 0
-16 3 0
6 -11 0
-9 -5 0
6 -2 0
22 -19 0
-15 -16 0
24 -22 0
21 -11 0
6 -16 0
2 17 0
8 -5 0
-20 -23 0
7 24 0
25 14 0
-21 -17 0
10 7 0
19 -21 0
22 -13 0
11 -19 0
-22 -24 0
17 21 0
22 20 0
-23 11 0
21 13 0
15 -25 0
-7 -3 0
15 -13 0
17 -4 0
-16 13 0
-10 -7 0
7 6 0
-17 23 0
-22 -9 0
-21 -15 0
